nb_edges = 45;
e_name = ["aa", "ab", "ac", "ad", "ae", "af", "ag", "ah", "ai", "aj", "ak", "al", "am", "an", "ao", "ap", "aq", "ar", "as", "at", "au", "av", "aw", "ax", "ay", "az", "ba", "bb", "bc", "bd", "be", "bf", "bg", "bh", "bi", "bj", "bk", "bl", "bm", "bn", "bo", "bp", "bq", "br", "bs"];
e_type = [border, border, inter, inter, inter, inter, inter, inter, inter, inter, inter, inter, inter, inter, inter, platform, platform, platform, platform, platform, platform, platform, platform, platform, platform, platform, platform, platform, platform, platform, inter, inter, inter, inter, inter, inter, inter, inter, inter, inter, inter, inter, inter, border, border];
e_cols = [{1},{2},{3},{4},{5},{6},{7},{8},{9,10},{11},{12},{13},{14},{15},{16},{17},{18},{19},{20},{21},{22},{23},{24},{25},{26},{27},{28},{29},{30},{31},{32,33},{34},{35},{36},{37},{38},{39},{40},{41},{42},{43},{44},{45},{46},{47}];
nb_trains = 1;
t_name = ["T1"];
t_routes = [{1}];
t_est = [119];
t_type = [vanish];
nb_routes = 1;
r_name = ["IW4"];
r_it_1 = ["IW4"];
r_it_2 = [""];
r_platform_name = ["S_IV"];
r_dwell_min = [100];
r_dur_min = [60];
r_overlap = [0];
r_block_start = [1];
r_block_end = [8];
r_train = [1];
nb_blocks = 8;
b_edge = [1, 3, 7, 11, 14, 19, 24, 29];
b_dur = [7, 15, 22, 30, 37, 45, 52, 60];
b_start_offset = [0, -7, -15, -22, -30, -37, -45, -52];
b_stop = [false, false, false, false, false, false, false, true];
b_route = [1, 1, 1, 1, 1, 1, 1, 1];
